(set-option :produce-models true)
(set-logic QF_UF)
(declare-fun p7() Bool)
(declare-fun p1() Bool)
(declare-fun p20() Bool)
(declare-fun p3() Bool)
(declare-fun p6() Bool)
(declare-fun p8() Bool)
(declare-fun p16() Bool)
(declare-fun p22() Bool)
(declare-fun p32() Bool)
(declare-fun p24() Bool)
(declare-fun p38() Bool)
(declare-fun p15() Bool)
(declare-fun p33() Bool)
(declare-fun p34() Bool)
(declare-fun p0() Bool)
(declare-fun p13() Bool)
(declare-fun p17() Bool)
(declare-fun p28() Bool)
(declare-fun p21() Bool)
(declare-fun p25() Bool)
(declare-fun p5() Bool)
(declare-fun p23() Bool)
(declare-fun p18() Bool)
(declare-fun p19() Bool)
(declare-fun p12() Bool)
(declare-fun p35() Bool)
(declare-fun p4() Bool)
(declare-fun p10() Bool)
(declare-fun p36() Bool)
(declare-fun p11() Bool)
(declare-fun p14() Bool)
(declare-fun p26() Bool)
(declare-fun p29() Bool)
(declare-fun p27() Bool)
(declare-fun p39() Bool)
(declare-fun p30() Bool)
(declare-fun p2() Bool)
(declare-fun p37() Bool)
(declare-fun p31() Bool)
(declare-fun p9() Bool)
(assert
(and (or p7 p1 p20) (or (not p3) p6 (not p8)) (or (not p16) p22 (not p32)) (or (not p24) (not p6) p38) (or (not p15) (not p7) p33) (or (not p34) p22 (not p15)) (or p0 p13 p6) (or (not p17) (not p28) p21) (or p25 (not p5) (not p15)) (or p22 (not p23) p17) (or (not p15) (not p18) (not p25)) (or p34 p21 p7) (or (not p19) p3 p23) (or p12 (not p35) p12) (or p4 (not p10) p25) (or (not p24) p36 p18) (or p12 p16 p10) (or p19 (not p11) p14) (or (not p35) (not p15) p26) (or p29 (not p24) (not p27)) (or (not p19) (not p36) (not p16)) (or p33 p14 (not p34)) (or (not p16) (not p26) p18) (or p32 (not p39) p28) (or p27 (not p33) (not p6)) (or (not p27) p6 p39) (or (not p38) (not p30) p23) (or p1 p38 (not p2)) (or p18 p24 p15) (or p11 (not p37) p25) (or (not p29) (not p10) (not p17)) (or p13 (not p37) p11) (or (not p8) p13 p5) (or (not p27) (not p20) p16) (or (not p5) p18 (not p32)) (or p8 p31 (not p28)) (or (not p26) p23 p12) (or p32 p28 (not p30)) (or p2 (not p35) (not p2)) (or (not p1) (not p14) p17) (or p3 (not p30) p27) (or (not p33) p31 (not p13)) (or (not p13) (not p34) (not p5)) (or p31 (not p20) p31) (or (not p11) (not p2) p9) (or (not p13) p14 p39) (or p11 (not p7) (not p36)) (or p2 (not p5) p27) (or p15 p13 (not p32)) (or p28 p38 (not p6)) (or (not p37) p35 p24) (or p36 (not p10) p22) (or p4 p37 (not p8)) (or p13 p28 (not p3)) (or (not p12) p35 p5) (or p30 p8 (not p8)) (or (not p25) p26 (not p10)) (or p14 p37 p12) (or p0 (not p7) (not p15)) (or (not p0) (not p30) (not p17)) (or (not p32) (not p7) (not p14)) (or p10 p11 p29) (or (not p4) (not p27) (not p16)) (or p25 p21 (not p8)) (or p17 p23 (not p28)) (or (not p36) p26 p16) (or (not p0) (not p1) (not p0)) (or p21 (not p17) p11) (or (not p35) (not p38) p4) (or p1 p18 (not p25)) (or p3 (not p2) (not p16)) (or (not p12) p5 p21) (or p15 p33 (not p26)) (or (not p35) (not p21) p9) (or p28 (not p15) p3) (or p15 p28 (not p22)) (or (not p3) p12 (not p25)) (or (not p0) p23 (not p3)) (or (not p37) (not p31) p27) (or p30 (not p3) (not p4)) (or p32 p31 p26) (or (not p35) (not p37) p21) (or (not p27) (not p31) (not p29)) (or (not p22) (not p3) (not p7)) (or p0 (not p5) p18) (or (not p10) p7 p6) (or p30 p17 p8) (or p30 p36 p27) (or (not p15) p17 p21) (or (not p6) (not p0) (not p21)) (or (not p24) (not p19) (not p0)) (or p16 (not p20) (not p31)) (or (not p13) (not p38) (not p11)) (or p32 p22 p2) (or p28 (not p21) p10) (or (not p37) (not p15) (not p35)) (or (not p37) (not p3) p13) (or (not p24) (not p35) (not p37)) (or p13 (not p29) (not p12)) (or (not p18) (not p0) (not p7)) (or (not p14) (not p0) (not p35)) (or p9 p25 (not p27)) (or (not p0) (not p3) p20) (or p31 p13 p22) (or (not p3) p0 (not p30)) (or p39 p4 p32) (or p8 (not p20) (not p1)) (or (not p31) (not p24) p9) (or p32 p4 p12) (or (not p9) p2 p31) (or p13 p14 (not p27)) (or (not p26) p0 (not p8)) (or (not p27) (not p16) (not p29)) (or p11 (not p22) (not p6)) (or (not p33) (not p7) p3) (or (not p29) (not p32) (not p4)) (or (not p36) (not p30) (not p10)) (or (not p20) p34 (not p6)) (or (not p8) (not p1) (not p39)) (or p36 (not p31) (not p25)) (or (not p27) (not p36) p20) (or p21 p3 (not p32)) (or p2 p21 p30) (or (not p14) p5 (not p39)) (or (not p28) (not p2) (not p24)) (or p35 p31 p35) (or (not p23) p11 (not p35)) (or (not p15) p7 p15) (or (not p34) p5 (not p37)) (or p35 (not p18) (not p33)) (or p7 p36 p16) (or (not p19) p9 (not p3)) (or (not p13) p34 (not p6)) (or (not p36) (not p7) p16) (or p27 (not p12) (not p1)) (or p14 p10 (not p15)) (or p17 (not p1) p11) (or (not p9) (not p33) (not p22)) (or p28 (not p39) (not p10)) (or p2 p13 (not p28)) (or p37 p15 p6) (or (not p37) (not p9) p29) (or p7 (not p38) p39) (or (not p0) (not p34) p20) (or (not p12) (not p14) p37) (or (not p24) (not p11) p5) (or p27 p30 p24) (or (not p32) (not p20) p7) (or (not p27) (not p12) (not p11)) (or p7 p1 (not p16)) (or (not p39) (not p14) (not p30)) (or (not p27) (not p5) p36) (or (not p39) p14 p11) (or p26 p26 p8) (or p4 (not p3) (not p5)) (or p21 (not p29) (not p20)) (or (not p18) p15 p26) (or (not p22) (not p36) (not p12)) (or (not p27) p9 (not p22)) (or p33 (not p25) (not p25)) (or p26 (not p18) p39) (or (not p26) (not p36) p25) (or p27 (not p0) (not p32)) (or (not p13) p24 p36) (or p39 p16 p26) (or p30 p6 (not p37)) (or p2 p0 p20) (or p13 (not p16) p20) (or (not p14) p39 p21) (or p22 p17 p22) (or p38 (not p27) p11))
)
(check-sat)
(get-model)
